(set-info :source |printed by MathSAT|)
(declare-fun |!{$(in_main#0)<k>}| () Int)
(declare-fun |!{$(in_main#0)<k>}.next| () Int)
(declare-fun |!{$(in_main#0)<k#1>}| () Int)
(declare-fun |!{$(in_main#0)<k#1>}.next| () Int)
(declare-fun |!{$(in_main#0)<v>}| () Int)
(declare-fun |!{$(in_main#0)<v>}.next| () Int)
(declare-fun |!{%memaddr}| () Int)
(declare-fun |!{%memaddr}.next| () Int)
(declare-fun |!{%mem.0}| () (Array Int Int))
(declare-fun |!{%mem.0}.next| () (Array Int Int))
(declare-fun |!{$(in_main#0)<N>}| () Int)
(declare-fun |!{$(in_main#0)<N>}.next| () Int)
(declare-fun |!{$(in_main#0)<&array>}| () Int)
(declare-fun |!{$(in_main#0)<&array>}.next| () Int)
(declare-fun |!{$(in_main#0)<$(in___VERIFIER_nondet_int#1)<h#<__VERIFIER_nondet_int.return>>>}| () Int)
(declare-fun |!{$(in_main#0)<$(in___VERIFIER_nondet_int#3)<h#<__VERIFIER_nondet_int.return>>>}| () Int)
(declare-fun |!{$(in_main#0)<$(in___VERIFIER_nondet_int#4)<h#<__VERIFIER_nondet_int.return>>>}| () Int)
(declare-fun |!{$(in_main#0)<$(in_rec_array_find#5)<$temp.1>>}| () Int)
(declare-fun |!{$(in_main#0)<$(in_rec_array_find#5)<$tmp>>}| () Int)
(declare-fun |!{$(in_main#0)<$(in_rec_array_find#5)<$(in_rec_array_find#0)<$temp.1>>>}| () Int)
(declare-fun |!{$(in_main#0)<$(in_rec_array_find#5)<$(in_rec_array_find#0)<$tmp>>>}| () Int)
(declare-fun !pc () Int)
(declare-fun !pc.next () Int)
(declare-fun |%{$(in_main#0)<k#1>}#1| () Int)
(declare-fun |%{$(in_main#0)<v>}#1| () Int)
(declare-fun rec_array_find<0> (Int Int Int Int) Int)
(declare-fun |%{$(in_main#0)<$(in_rec_array_find#5)<$(in_rec_array_find#0)<$temp.1>>>}#3| () Int)
(declare-fun |%{$(in_main#0)<$(in_rec_array_find#5)<$(in_rec_array_find#0)<$tmp>>>}#3| () Int)
(declare-fun |%{$(in_main#0)<$(in_rec_array_find#5)<$(in_rec_array_find#0)<rec_array_find.return>>>}#3| () Int)
(declare-fun |%{$(in_main#0)<$(in_rec_array_find#5)<$temp.1>>}#3| () Int)
(declare-fun |%{$(in_main#0)<$(in_rec_array_find#5)<$tmp>>}#3| () Int)
(declare-fun |%{$(in_main#0)<$(in_rec_array_find#5)<rec_array_find.return>>}#3| () Int)
(define-fun .def_62 () Int (! !pc :next !pc.next))
(define-fun .def_65 () Bool (! (= .def_62 2) :init true))
(define-fun .def_301 () Bool (= .def_62 51))
(define-fun .def_151 () Bool (= !pc.next 162))
(define-fun .def_308 () Bool (and .def_151 .def_301))
(define-fun .def_291 () Bool (= |!{$(in_main#0)<k#1>}.next| 0))
(define-fun .def_8 () Int (! |!{$(in_main#0)<k>}| :next |!{$(in_main#0)<k>}.next|))
(define-fun .def_112 () Bool (= .def_8 |!{$(in_main#0)<k>}.next|))
(define-fun .def_292 () Bool (and .def_112 .def_291))
(define-fun .def_282 () Bool (= |!{$(in_main#0)<v>}.next| |!{$(in_main#0)<$(in___VERIFIER_nondet_int#4)<h#<__VERIFIER_nondet_int.return>>>}|))
(define-fun .def_293 () Bool (and .def_282 .def_292))
(define-fun .def_14 () Int (! |!{%memaddr}| :next |!{%memaddr}.next|))
(define-fun .def_118 () Bool (= .def_14 |!{%memaddr}.next|))
(define-fun .def_294 () Bool (and .def_118 .def_293))
(define-fun .def_16 () (Array Int Int) (! |!{%mem.0}| :next |!{%mem.0}.next|))
(define-fun .def_89 () Bool (= .def_16 |!{%mem.0}.next|))
(define-fun .def_295 () Bool (and .def_89 .def_294))
(define-fun .def_18 () Int (! |!{$(in_main#0)<N>}| :next |!{$(in_main#0)<N>}.next|))
(define-fun .def_121 () Bool (= .def_18 |!{$(in_main#0)<N>}.next|))
(define-fun .def_296 () Bool (and .def_121 .def_295))
(define-fun .def_20 () Int (! |!{$(in_main#0)<&array>}| :next |!{$(in_main#0)<&array>}.next|))
(define-fun .def_123 () Bool (= .def_20 |!{$(in_main#0)<&array>}.next|))
(define-fun .def_297 () Bool (and .def_123 .def_296))
(define-fun .def_250 () Bool (= |%{$(in_main#0)<$(in_rec_array_find#5)<rec_array_find.return>>}#3| (- 1)))
(define-fun .def_298 () Bool (and .def_250 .def_297))
(define-fun .def_228 () Bool (= |!{$(in_main#0)<$(in_rec_array_find#5)<$temp.1>>}| |%{$(in_main#0)<$(in_rec_array_find#5)<$temp.1>>}#3|))
(define-fun .def_170 () Bool (<= .def_18 0))
(define-fun .def_248 () Bool (and .def_170 .def_228))
(define-fun .def_234 () Bool (= |!{$(in_main#0)<$(in_rec_array_find#5)<$tmp>>}| |%{$(in_main#0)<$(in_rec_array_find#5)<$tmp>>}#3|))
(define-fun .def_249 () Bool (and .def_234 .def_248))
(define-fun .def_251 () Bool (and .def_249 .def_250))
(define-fun .def_241 () Bool (= |%{$(in_main#0)<$(in_rec_array_find#5)<$(in_rec_array_find#0)<rec_array_find.return>>>}#3| |%{$(in_main#0)<$(in_rec_array_find#5)<rec_array_find.return>>}#3|))
(define-fun .def_235 () Bool (= |%{$(in_main#0)<$(in_rec_array_find#5)<$(in_rec_array_find#0)<rec_array_find.return>>>}#3| |%{$(in_main#0)<$(in_rec_array_find#5)<$tmp>>}#3|))
(define-fun .def_229 () Bool (= |%{$(in_main#0)<$(in_rec_array_find#5)<$(in_rec_array_find#0)<rec_array_find.return>>>}#3| |%{$(in_main#0)<$(in_rec_array_find#5)<$temp.1>>}#3|))
(define-fun .def_218 () Bool (= |%{$(in_main#0)<$(in_rec_array_find#5)<$(in_rec_array_find#0)<rec_array_find.return>>>}#3| (- 1)))
(define-fun .def_192 () Bool (= |!{$(in_main#0)<$(in_rec_array_find#5)<$(in_rec_array_find#0)<$temp.1>>>}| |%{$(in_main#0)<$(in_rec_array_find#5)<$(in_rec_array_find#0)<$temp.1>>>}#3|))
(define-fun .def_175 () Bool (<= .def_18 1))
(define-fun .def_216 () Bool (and .def_175 .def_192))
(define-fun .def_198 () Bool (= |!{$(in_main#0)<$(in_rec_array_find#5)<$(in_rec_array_find#0)<$tmp>>>}| |%{$(in_main#0)<$(in_rec_array_find#5)<$(in_rec_array_find#0)<$tmp>>>}#3|))
(define-fun .def_217 () Bool (and .def_198 .def_216))
(define-fun .def_219 () Bool (and .def_217 .def_218))
(define-fun .def_181 () Int (rec_array_find<0> .def_20 |!{$(in_main#0)<$(in___VERIFIER_nondet_int#4)<h#<__VERIFIER_nondet_int.return>>>}| 2 .def_18))
(define-fun .def_205 () Bool (= .def_181 |%{$(in_main#0)<$(in_rec_array_find#5)<$(in_rec_array_find#0)<rec_array_find.return>>>}#3|))
(define-fun .def_199 () Bool (= .def_181 |%{$(in_main#0)<$(in_rec_array_find#5)<$(in_rec_array_find#0)<$tmp>>>}#3|))
(define-fun .def_193 () Bool (= .def_181 |%{$(in_main#0)<$(in_rec_array_find#5)<$(in_rec_array_find#0)<$temp.1>>>}#3|))
(define-fun .def_177 () Int (+ .def_20 1))
(define-fun .def_178 () Int (select .def_16 .def_177))
(define-fun .def_179 () Bool (= |!{$(in_main#0)<$(in___VERIFIER_nondet_int#4)<h#<__VERIFIER_nondet_int.return>>>}| .def_178))
(define-fun .def_180 () Bool (not .def_179))
(define-fun .def_195 () Bool (and .def_180 .def_193))
(define-fun .def_201 () Bool (and .def_195 .def_199))
(define-fun .def_207 () Bool (and .def_201 .def_205))
(define-fun .def_204 () Bool (= |%{$(in_main#0)<$(in_rec_array_find#5)<$(in_rec_array_find#0)<rec_array_find.return>>>}#3| 1))
(define-fun .def_194 () Bool (and .def_179 .def_192))
(define-fun .def_200 () Bool (and .def_194 .def_198))
(define-fun .def_206 () Bool (and .def_200 .def_204))
(define-fun .def_208 () Bool (or .def_206 .def_207))
(define-fun .def_176 () Bool (not .def_175))
(define-fun .def_209 () Bool (and .def_176 .def_208))
(define-fun .def_220 () Bool (or .def_209 .def_219))
(define-fun .def_172 () Int (select .def_16 .def_20))
(define-fun .def_173 () Bool (= |!{$(in_main#0)<$(in___VERIFIER_nondet_int#4)<h#<__VERIFIER_nondet_int.return>>>}| .def_172))
(define-fun .def_174 () Bool (not .def_173))
(define-fun .def_221 () Bool (and .def_174 .def_220))
(define-fun .def_231 () Bool (and .def_221 .def_229))
(define-fun .def_237 () Bool (and .def_231 .def_235))
(define-fun .def_243 () Bool (and .def_237 .def_241))
(define-fun .def_240 () Bool (= |%{$(in_main#0)<$(in_rec_array_find#5)<rec_array_find.return>>}#3| 0))
(define-fun .def_230 () Bool (and .def_173 .def_228))
(define-fun .def_236 () Bool (and .def_230 .def_234))
(define-fun .def_242 () Bool (and .def_236 .def_240))
(define-fun .def_244 () Bool (or .def_242 .def_243))
(define-fun .def_171 () Bool (not .def_170))
(define-fun .def_245 () Bool (and .def_171 .def_244))
(define-fun .def_252 () Bool (or .def_245 .def_251))
(define-fun .def_299 () Bool (and .def_252 .def_298))
(define-fun .def_165 () Bool (<= .def_18 .def_8))
(define-fun .def_300 () Bool (and .def_165 .def_299))
(define-fun .def_309 () Bool (and .def_300 .def_308))
(define-fun .def_304 () Bool (= !pc.next 208))
(define-fun .def_305 () Bool (and .def_301 .def_304))
(define-fun .def_255 () Int (+ .def_20 |%{$(in_main#0)<$(in_rec_array_find#5)<rec_array_find.return>>}#3|))
(define-fun .def_256 () Int (select .def_16 .def_255))
(define-fun .def_257 () Bool (= |!{$(in_main#0)<$(in___VERIFIER_nondet_int#4)<h#<__VERIFIER_nondet_int.return>>>}| .def_256))
(define-fun .def_258 () Int (ite .def_257 1 0))
(define-fun .def_259 () Bool (= .def_258 0))
(define-fun .def_280 () Bool (and .def_112 .def_259))
(define-fun .def_10 () Int (! |!{$(in_main#0)<k#1>}| :next |!{$(in_main#0)<k#1>}.next|))
(define-fun .def_114 () Bool (= .def_10 |!{$(in_main#0)<k#1>}.next|))
(define-fun .def_281 () Bool (and .def_114 .def_280))
(define-fun .def_283 () Bool (and .def_281 .def_282))
(define-fun .def_284 () Bool (and .def_118 .def_283))
(define-fun .def_285 () Bool (and .def_89 .def_284))
(define-fun .def_286 () Bool (and .def_121 .def_285))
(define-fun .def_287 () Bool (and .def_123 .def_286))
(define-fun .def_254 () Bool (not .def_250))
(define-fun .def_288 () Bool (and .def_254 .def_287))
(define-fun .def_289 () Bool (and .def_252 .def_288))
(define-fun .def_290 () Bool (and .def_165 .def_289))
(define-fun .def_306 () Bool (and .def_290 .def_305))
(define-fun .def_97 () Bool (= !pc.next 51))
(define-fun .def_302 () Bool (and .def_97 .def_301))
(define-fun .def_167 () Int (+ .def_8 .def_20))
(define-fun .def_168 () (Array Int Int) (store .def_16 .def_167 |!{$(in_main#0)<$(in___VERIFIER_nondet_int#3)<h#<__VERIFIER_nondet_int.return>>>}|))
(define-fun .def_275 () Bool (= |!{%mem.0}.next| .def_168))
(define-fun .def_269 () Int (* (- 1) |!{$(in_main#0)<k>}.next|))
(define-fun .def_270 () Int (+ .def_8 .def_269))
(define-fun .def_271 () Bool (= .def_270 (- 1)))
(define-fun .def_272 () Bool (and .def_114 .def_271))
(define-fun .def_12 () Int (! |!{$(in_main#0)<v>}| :next |!{$(in_main#0)<v>}.next|))
(define-fun .def_116 () Bool (= .def_12 |!{$(in_main#0)<v>}.next|))
(define-fun .def_273 () Bool (and .def_116 .def_272))
(define-fun .def_274 () Bool (and .def_118 .def_273))
(define-fun .def_276 () Bool (and .def_274 .def_275))
(define-fun .def_277 () Bool (and .def_121 .def_276))
(define-fun .def_278 () Bool (and .def_123 .def_277))
(define-fun .def_166 () Bool (not .def_165))
(define-fun .def_279 () Bool (and .def_166 .def_278))
(define-fun .def_303 () Bool (and .def_279 .def_302))
(define-fun .def_307 () Bool (or .def_303 .def_306))
(define-fun .def_310 () Bool (or .def_307 .def_309))
(define-fun .def_155 () Bool (= !pc.next 0))
(define-fun .def_146 () Bool (= .def_62 162))
(define-fun .def_156 () Bool (and .def_146 .def_155))
(define-fun .def_138 () Bool (and .def_112 .def_114))
(define-fun .def_139 () Bool (and .def_116 .def_138))
(define-fun .def_140 () Bool (and .def_118 .def_139))
(define-fun .def_141 () Bool (and .def_89 .def_140))
(define-fun .def_142 () Bool (and .def_121 .def_141))
(define-fun .def_143 () Bool (and .def_123 .def_142))
(define-fun .def_100 () Bool (<= .def_18 .def_10))
(define-fun .def_144 () Bool (and .def_100 .def_143))
(define-fun .def_157 () Bool (and .def_144 .def_156))
(define-fun .def_152 () Bool (and .def_146 .def_151))
(define-fun .def_127 () Int (* (- 1) |!{$(in_main#0)<k#1>}.next|))
(define-fun .def_128 () Int (+ .def_10 .def_127))
(define-fun .def_129 () Bool (= .def_128 (- 1)))
(define-fun .def_130 () Bool (and .def_112 .def_129))
(define-fun .def_131 () Bool (and .def_116 .def_130))
(define-fun .def_132 () Bool (and .def_118 .def_131))
(define-fun .def_133 () Bool (and .def_89 .def_132))
(define-fun .def_134 () Bool (and .def_121 .def_133))
(define-fun .def_135 () Bool (and .def_123 .def_134))
(define-fun .def_102 () Int (+ .def_10 .def_20))
(define-fun .def_103 () Int (select .def_16 .def_102))
(define-fun .def_104 () Bool (= .def_12 .def_103))
(define-fun .def_105 () Bool (not .def_104))
(define-fun .def_106 () Int (ite .def_105 1 0))
(define-fun .def_107 () Bool (= .def_106 0))
(define-fun .def_108 () Bool (not .def_107))
(define-fun .def_136 () Bool (and .def_108 .def_135))
(define-fun .def_101 () Bool (not .def_100))
(define-fun .def_137 () Bool (and .def_101 .def_136))
(define-fun .def_153 () Bool (and .def_137 .def_152))
(define-fun .def_148 () Bool (= !pc.next 182))
(define-fun .def_149 () Bool (and .def_146 .def_148))
(define-fun .def_113 () Bool (and .def_107 .def_112))
(define-fun .def_115 () Bool (and .def_113 .def_114))
(define-fun .def_117 () Bool (and .def_115 .def_116))
(define-fun .def_119 () Bool (and .def_117 .def_118))
(define-fun .def_120 () Bool (and .def_89 .def_119))
(define-fun .def_122 () Bool (and .def_120 .def_121))
(define-fun .def_124 () Bool (and .def_122 .def_123))
(define-fun .def_125 () Bool (and .def_101 .def_124))
(define-fun .def_150 () Bool (and .def_125 .def_149))
(define-fun .def_154 () Bool (or .def_150 .def_153))
(define-fun .def_158 () Bool (or .def_154 .def_157))
(define-fun .def_98 () Bool (and .def_65 .def_97))
(define-fun .def_93 () Bool (= |!{$(in_main#0)<&array>}.next| 1))
(define-fun .def_91 () Bool (= |!{$(in_main#0)<N>}.next| |!{$(in_main#0)<$(in___VERIFIER_nondet_int#1)<h#<__VERIFIER_nondet_int.return>>>}|))
(define-fun .def_87 () Bool (= |!{%memaddr}.next| 2))
(define-fun .def_85 () Bool (= |!{$(in_main#0)<v>}.next| |%{$(in_main#0)<v>}#1|))
(define-fun .def_83 () Bool (= |!{$(in_main#0)<k#1>}.next| |%{$(in_main#0)<k#1>}#1|))
(define-fun .def_82 () Bool (= |!{$(in_main#0)<k>}.next| 0))
(define-fun .def_84 () Bool (and .def_82 .def_83))
(define-fun .def_86 () Bool (and .def_84 .def_85))
(define-fun .def_88 () Bool (and .def_86 .def_87))
(define-fun .def_90 () Bool (and .def_88 .def_89))
(define-fun .def_92 () Bool (and .def_90 .def_91))
(define-fun .def_94 () Bool (and .def_92 .def_93))
(define-fun .def_77 () Bool (<= |!{$(in_main#0)<$(in___VERIFIER_nondet_int#1)<h#<__VERIFIER_nondet_int.return>>>}| 0))
(define-fun .def_78 () Bool (not .def_77))
(define-fun .def_79 () Int (ite .def_78 1 0))
(define-fun .def_80 () Bool (= .def_79 0))
(define-fun .def_81 () Bool (not .def_80))
(define-fun .def_95 () Bool (and .def_81 .def_94))
(define-fun .def_99 () Bool (and .def_95 .def_98))
(define-fun .def_159 () Bool (or .def_99 .def_158))
(define-fun .def_311 () Bool (! (or .def_159 .def_310) :trans true))
(define-fun .def_163 () Bool (= .def_62 208))
(define-fun .def_160 () Bool (= .def_62 182))
(define-fun .def_312 () Bool (or .def_160 .def_163))
(define-fun .def_313 () Bool (! (not .def_312) :invar-property 0 :invar-property-name ||))
(assert true)
